NAME : amz1631.167798_167798.tour
COMMENT : Cost = 167798_167798
COMMENT : Found by LKH-AMZ [Keld Helsgaun] Sun May 11 14:57:01 2025
COMMENT : TW viol.: 0 #: 0
TYPE : TOUR
DIMENSION : 162
TOUR_SECTION
112
142
58
136
87
19
42
106
69
54
100
52
133
27
50
31
9
85
77
101
84
61
137
90
15
104
103
132
124
59
130
33
140
156
110
65
95
88
57
75
29
91
162
134
109
60
18
10
63
32
56
5
117
159
47
48
94
155
6
152
44
116
97
17
34
127
157
4
80
92
43
40
148
67
113
105
22
64
7
81
115
1
108
135
73
13
160
39
129
98
79
123
66
26
20
141
153
2
143
121
14
72
107
150
128
51
146
74
96
122
3
145
30
21
62
36
102
126
158
82
131
111
147
149
138
118
12
114
55
93
99
161
45
144
68
119
24
86
11
23
139
78
120
89
35
38
37
53
8
76
28
25
151
16
125
70
41
49
83
71
46
154
-1
EOF
